p cnf 146 616
c max 8 9 10 11 17 18 19 20 26 27 28 29 35 36 37 38 44 45 46 47 53 54 55 56 62 63 64 65 71 72 73 74 80 81 82 83 89 90 91 92 98 99 100 101 107 108 109 110 116 117 118 119 125 126 127 128 134 135 136 137 143 144 145 146 0
c ind 1 2 3 4 5 6 7 12 13 14 15 16 21 22 23 24 25 30 31 32 33 34 39 40 41 42 43 48 49 50 51 52 57 58 59 60 61 66 67 68 69 70 75 76 77 78 79 84 85 86 87 88 93 94 95 96 97 102 103 104 105 106 111 112 113 114 115 120 121 122 123 124 129 130 131 132 133 138 139 140 141 142 0
c p complex 2 0.9238795325112867384831361050601117312908172607421875 -0.382683432365089781779232680491986684501171112060546875 0
c p complex -2 1 0 0
c p weight 4 -1 0
c p weight -4 1 0
c p weight 5 0.70710678118654752440084436210485 0
c p weight -5 1 0
c p complex 6 0.70710678118654752440084436210485 0.70710678118654752440084436210485 0
c p complex -6 1 0 0
c p complex 7 0.70710678118654752440084436210485 -0.70710678118654752440084436210485 0
c p complex -7 1 0 0
c p weight 13 -1 0
c p weight -13 1 0
c p weight 14 0.70710678118654752440084436210485 0
c p weight -14 1 0
c p complex 15 0.70710678118654752440084436210485 0.70710678118654752440084436210485 0
c p complex -15 1 0 0
c p complex 16 0.70710678118654752440084436210485 -0.70710678118654752440084436210485 0
c p complex -16 1 0 0
c p weight 22 -1 0
c p weight -22 1 0
c p weight 23 0.70710678118654752440084436210485 0
c p weight -23 1 0
c p complex 24 0.70710678118654752440084436210485 0.70710678118654752440084436210485 0
c p complex -24 1 0 0
c p complex 25 0.70710678118654752440084436210485 -0.70710678118654752440084436210485 0
c p complex -25 1 0 0
c p weight 31 -1 0
c p weight -31 1 0
c p weight 32 0.70710678118654752440084436210485 0
c p weight -32 1 0
c p complex 33 0.70710678118654752440084436210485 0.70710678118654752440084436210485 0
c p complex -33 1 0 0
c p complex 34 0.70710678118654752440084436210485 -0.70710678118654752440084436210485 0
c p complex -34 1 0 0
c p weight 40 -1 0
c p weight -40 1 0
c p weight 41 0.70710678118654752440084436210485 0
c p weight -41 1 0
c p complex 42 0.70710678118654752440084436210485 0.70710678118654752440084436210485 0
c p complex -42 1 0 0
c p complex 43 0.70710678118654752440084436210485 -0.70710678118654752440084436210485 0
c p complex -43 1 0 0
c p weight 49 -1 0
c p weight -49 1 0
c p weight 50 0.70710678118654752440084436210485 0
c p weight -50 1 0
c p complex 51 0.70710678118654752440084436210485 0.70710678118654752440084436210485 0
c p complex -51 1 0 0
c p complex 52 0.70710678118654752440084436210485 -0.70710678118654752440084436210485 0
c p complex -52 1 0 0
c p weight 58 -1 0
c p weight -58 1 0
c p weight 59 0.70710678118654752440084436210485 0
c p weight -59 1 0
c p complex 60 0.70710678118654752440084436210485 0.70710678118654752440084436210485 0
c p complex -60 1 0 0
c p complex 61 0.70710678118654752440084436210485 -0.70710678118654752440084436210485 0
c p complex -61 1 0 0
c p weight 67 -1 0
c p weight -67 1 0
c p weight 68 0.70710678118654752440084436210485 0
c p weight -68 1 0
c p complex 69 0.70710678118654752440084436210485 0.70710678118654752440084436210485 0
c p complex -69 1 0 0
c p complex 70 0.70710678118654752440084436210485 -0.70710678118654752440084436210485 0
c p complex -70 1 0 0
c p weight 76 -1 0
c p weight -76 1 0
c p weight 77 0.70710678118654752440084436210485 0
c p weight -77 1 0
c p complex 78 0.70710678118654752440084436210485 0.70710678118654752440084436210485 0
c p complex -78 1 0 0
c p complex 79 0.70710678118654752440084436210485 -0.70710678118654752440084436210485 0
c p complex -79 1 0 0
c p weight 85 -1 0
c p weight -85 1 0
c p weight 86 0.70710678118654752440084436210485 0
c p weight -86 1 0
c p complex 87 0.70710678118654752440084436210485 0.70710678118654752440084436210485 0
c p complex -87 1 0 0
c p complex 88 0.70710678118654752440084436210485 -0.70710678118654752440084436210485 0
c p complex -88 1 0 0
c p weight 94 -1 0
c p weight -94 1 0
c p weight 95 0.70710678118654752440084436210485 0
c p weight -95 1 0
c p complex 96 0.70710678118654752440084436210485 0.70710678118654752440084436210485 0
c p complex -96 1 0 0
c p complex 97 0.70710678118654752440084436210485 -0.70710678118654752440084436210485 0
c p complex -97 1 0 0
c p weight 103 -1 0
c p weight -103 1 0
c p weight 104 0.70710678118654752440084436210485 0
c p weight -104 1 0
c p complex 105 0.70710678118654752440084436210485 0.70710678118654752440084436210485 0
c p complex -105 1 0 0
c p complex 106 0.70710678118654752440084436210485 -0.70710678118654752440084436210485 0
c p complex -106 1 0 0
c p weight 112 -1 0
c p weight -112 1 0
c p weight 113 0.70710678118654752440084436210485 0
c p weight -113 1 0
c p complex 114 0.70710678118654752440084436210485 0.70710678118654752440084436210485 0
c p complex -114 1 0 0
c p complex 115 0.70710678118654752440084436210485 -0.70710678118654752440084436210485 0
c p complex -115 1 0 0
c p weight 121 -1 0
c p weight -121 1 0
c p weight 122 0.70710678118654752440084436210485 0
c p weight -122 1 0
c p complex 123 0.70710678118654752440084436210485 0.70710678118654752440084436210485 0
c p complex -123 1 0 0
c p complex 124 0.70710678118654752440084436210485 -0.70710678118654752440084436210485 0
c p complex -124 1 0 0
c p weight 130 -1 0
c p weight -130 1 0
c p weight 131 0.70710678118654752440084436210485 0
c p weight -131 1 0
c p complex 132 0.70710678118654752440084436210485 0.70710678118654752440084436210485 0
c p complex -132 1 0 0
c p complex 133 0.70710678118654752440084436210485 -0.70710678118654752440084436210485 0
c p complex -133 1 0 0
c p weight 139 -1 0
c p weight -139 1 0
c p weight 140 0.70710678118654752440084436210485 0
c p weight -140 1 0
c p complex 141 0.70710678118654752440084436210485 0.70710678118654752440084436210485 0
c p complex -141 1 0 0
c p complex 142 0.70710678118654752440084436210485 -0.70710678118654752440084436210485 0
c p complex -142 1 0 0
2 -1 0
-2 1 0
3 -8 -1 0
-3 -8 1 0
-4 -8 0
-5 -8 0
-7 -8 0
-6 -8 0
-4 3 -9 0
-4 -9 1 0
4 -3 -9 -1 0
5 -9 0
-7 -9 0
-6 -9 0
3 -11 -1 0
3 -10 -1 0
-3 -11 1 0
-3 -10 1 0
-4 -11 0
-4 -10 0
-5 -11 0
-5 -10 0
-7 -10 0
-6 -11 0
7 -11 -1 0
6 -10 -1 0
-7 -11 1 0
-6 -10 1 0
8 9 10 11 0
-8 -9 0
-8 -10 0
-8 -11 0
-9 -10 0
-9 -11 0
-10 -11 0
12 -17 -3 0
-12 -17 3 0
-13 -17 0
-14 -17 0
-16 -17 0
-15 -17 0
-13 12 -18 0
-13 -18 3 0
13 -12 -18 -3 0
14 -18 0
-16 -18 0
-15 -18 0
12 -20 -3 0
12 -19 -3 0
-12 -20 3 0
-12 -19 3 0
-13 -20 0
-13 -19 0
-14 -20 0
-14 -19 0
-16 -19 0
-15 -20 0
16 -20 -3 0
15 -19 -3 0
-16 -20 3 0
-15 -19 3 0
17 18 19 20 0
-17 -18 0
-17 -19 0
-17 -20 0
-18 -19 0
-18 -20 0
-19 -20 0
-18 -9 0
-19 -11 0
-20 -10 0
-8 17 0
21 -26 -12 0
-21 -26 12 0
-22 -26 0
-23 -26 0
-25 -26 0
-24 -26 0
-22 21 -27 0
-22 -27 12 0
22 -21 -27 -12 0
23 -27 0
-25 -27 0
-24 -27 0
21 -29 -12 0
21 -28 -12 0
-21 -29 12 0
-21 -28 12 0
-22 -29 0
-22 -28 0
-23 -29 0
-23 -28 0
-25 -28 0
-24 -29 0
25 -29 -12 0
24 -28 -12 0
-25 -29 12 0
-24 -28 12 0
26 27 28 29 0
-26 -27 0
-26 -28 0
-26 -29 0
-27 -28 0
-27 -29 0
-28 -29 0
-27 -18 0
-28 -20 0
-29 -19 0
-17 26 0
30 -35 -21 0
-30 -35 21 0
-31 -35 0
-32 -35 0
-34 -35 0
-33 -35 0
-31 30 -36 0
-31 -36 21 0
31 -30 -36 -21 0
32 -36 0
-34 -36 0
-33 -36 0
30 -38 -21 0
30 -37 -21 0
-30 -38 21 0
-30 -37 21 0
-31 -38 0
-31 -37 0
-32 -38 0
-32 -37 0
-34 -37 0
-33 -38 0
34 -38 -21 0
33 -37 -21 0
-34 -38 21 0
-33 -37 21 0
35 36 37 38 0
-35 -36 0
-35 -37 0
-35 -38 0
-36 -37 0
-36 -38 0
-37 -38 0
-36 -27 0
-37 -29 0
-38 -28 0
-26 35 0
39 -44 -30 0
-39 -44 30 0
-40 -44 0
-41 -44 0
-43 -44 0
-42 -44 0
-40 39 -45 0
-40 -45 30 0
40 -39 -45 -30 0
41 -45 0
-43 -45 0
-42 -45 0
39 -47 -30 0
39 -46 -30 0
-39 -47 30 0
-39 -46 30 0
-40 -47 0
-40 -46 0
-41 -47 0
-41 -46 0
-43 -46 0
-42 -47 0
43 -47 -30 0
42 -46 -30 0
-43 -47 30 0
-42 -46 30 0
44 45 46 47 0
-44 -45 0
-44 -46 0
-44 -47 0
-45 -46 0
-45 -47 0
-46 -47 0
-45 -36 0
-46 -38 0
-47 -37 0
-35 44 0
-46 -37 -28 -19 -10 0
-47 -38 -29 -20 -11 0
48 -53 -39 0
-48 -53 39 0
-49 -53 0
-50 -53 0
-52 -53 0
-51 -53 0
-49 48 -54 0
-49 -54 39 0
49 -48 -54 -39 0
50 -54 0
-52 -54 0
-51 -54 0
48 -56 -39 0
48 -55 -39 0
-48 -56 39 0
-48 -55 39 0
-49 -56 0
-49 -55 0
-50 -56 0
-50 -55 0
-52 -55 0
-51 -56 0
52 -56 -39 0
51 -55 -39 0
-52 -56 39 0
-51 -55 39 0
53 54 55 56 0
-53 -54 0
-53 -55 0
-53 -56 0
-54 -55 0
-54 -56 0
-55 -56 0
-54 -45 0
-55 -47 0
-56 -46 0
-44 53 0
-55 -46 -37 -28 -19 0
-56 -47 -38 -29 -20 0
57 -62 -48 0
-57 -62 48 0
-58 -62 0
-59 -62 0
-61 -62 0
-60 -62 0
-58 57 -63 0
-58 -63 48 0
58 -57 -63 -48 0
59 -63 0
-61 -63 0
-60 -63 0
57 -65 -48 0
57 -64 -48 0
-57 -65 48 0
-57 -64 48 0
-58 -65 0
-58 -64 0
-59 -65 0
-59 -64 0
-61 -64 0
-60 -65 0
61 -65 -48 0
60 -64 -48 0
-61 -65 48 0
-60 -64 48 0
62 63 64 65 0
-62 -63 0
-62 -64 0
-62 -65 0
-63 -64 0
-63 -65 0
-64 -65 0
-63 -54 0
-64 -56 0
-65 -55 0
-53 62 0
-64 -55 -46 -37 -28 0
-65 -56 -47 -38 -29 0
66 -71 -57 0
-66 -71 57 0
-67 -71 0
-68 -71 0
-70 -71 0
-69 -71 0
-67 66 -72 0
-67 -72 57 0
67 -66 -72 -57 0
68 -72 0
-70 -72 0
-69 -72 0
66 -74 -57 0
66 -73 -57 0
-66 -74 57 0
-66 -73 57 0
-67 -74 0
-67 -73 0
-68 -74 0
-68 -73 0
-70 -73 0
-69 -74 0
70 -74 -57 0
69 -73 -57 0
-70 -74 57 0
-69 -73 57 0
71 72 73 74 0
-71 -72 0
-71 -73 0
-71 -74 0
-72 -73 0
-72 -74 0
-73 -74 0
-72 -63 0
-73 -65 0
-74 -64 0
-62 71 0
-73 -64 -55 -46 -37 0
-74 -65 -56 -47 -38 0
75 -80 -66 0
-75 -80 66 0
-76 -80 0
-77 -80 0
-79 -80 0
-78 -80 0
-76 75 -81 0
-76 -81 66 0
76 -75 -81 -66 0
77 -81 0
-79 -81 0
-78 -81 0
75 -83 -66 0
75 -82 -66 0
-75 -83 66 0
-75 -82 66 0
-76 -83 0
-76 -82 0
-77 -83 0
-77 -82 0
-79 -82 0
-78 -83 0
79 -83 -66 0
78 -82 -66 0
-79 -83 66 0
-78 -82 66 0
80 81 82 83 0
-80 -81 0
-80 -82 0
-80 -83 0
-81 -82 0
-81 -83 0
-82 -83 0
-81 -72 0
-82 -74 0
-83 -73 0
-71 80 0
-82 -73 -64 -55 -46 0
-83 -74 -65 -56 -47 0
84 -89 -75 0
-84 -89 75 0
-85 -89 0
-86 -89 0
-88 -89 0
-87 -89 0
-85 84 -90 0
-85 -90 75 0
85 -84 -90 -75 0
86 -90 0
-88 -90 0
-87 -90 0
84 -92 -75 0
84 -91 -75 0
-84 -92 75 0
-84 -91 75 0
-85 -92 0
-85 -91 0
-86 -92 0
-86 -91 0
-88 -91 0
-87 -92 0
88 -92 -75 0
87 -91 -75 0
-88 -92 75 0
-87 -91 75 0
89 90 91 92 0
-89 -90 0
-89 -91 0
-89 -92 0
-90 -91 0
-90 -92 0
-91 -92 0
-90 -81 0
-91 -83 0
-92 -82 0
-80 89 0
-91 -82 -73 -64 -55 0
-92 -83 -74 -65 -56 0
93 -98 -84 0
-93 -98 84 0
-94 -98 0
-95 -98 0
-97 -98 0
-96 -98 0
-94 93 -99 0
-94 -99 84 0
94 -93 -99 -84 0
95 -99 0
-97 -99 0
-96 -99 0
93 -101 -84 0
93 -100 -84 0
-93 -101 84 0
-93 -100 84 0
-94 -101 0
-94 -100 0
-95 -101 0
-95 -100 0
-97 -100 0
-96 -101 0
97 -101 -84 0
96 -100 -84 0
-97 -101 84 0
-96 -100 84 0
98 99 100 101 0
-98 -99 0
-98 -100 0
-98 -101 0
-99 -100 0
-99 -101 0
-100 -101 0
-99 -90 0
-100 -92 0
-101 -91 0
-89 98 0
-100 -91 -82 -73 -64 0
-101 -92 -83 -74 -65 0
102 -107 -93 0
-102 -107 93 0
-103 -107 0
-104 -107 0
-106 -107 0
-105 -107 0
-103 102 -108 0
-103 -108 93 0
103 -102 -108 -93 0
104 -108 0
-106 -108 0
-105 -108 0
102 -110 -93 0
102 -109 -93 0
-102 -110 93 0
-102 -109 93 0
-103 -110 0
-103 -109 0
-104 -110 0
-104 -109 0
-106 -109 0
-105 -110 0
106 -110 -93 0
105 -109 -93 0
-106 -110 93 0
-105 -109 93 0
107 108 109 110 0
-107 -108 0
-107 -109 0
-107 -110 0
-108 -109 0
-108 -110 0
-109 -110 0
-108 -99 0
-109 -101 0
-110 -100 0
-98 107 0
-109 -100 -91 -82 -73 0
-110 -101 -92 -83 -74 0
111 -116 -102 0
-111 -116 102 0
-112 -116 0
-113 -116 0
-115 -116 0
-114 -116 0
-112 111 -117 0
-112 -117 102 0
112 -111 -117 -102 0
113 -117 0
-115 -117 0
-114 -117 0
111 -119 -102 0
111 -118 -102 0
-111 -119 102 0
-111 -118 102 0
-112 -119 0
-112 -118 0
-113 -119 0
-113 -118 0
-115 -118 0
-114 -119 0
115 -119 -102 0
114 -118 -102 0
-115 -119 102 0
-114 -118 102 0
116 117 118 119 0
-116 -117 0
-116 -118 0
-116 -119 0
-117 -118 0
-117 -119 0
-118 -119 0
-117 -108 0
-118 -110 0
-119 -109 0
-107 116 0
-118 -109 -100 -91 -82 0
-119 -110 -101 -92 -83 0
120 -125 -111 0
-120 -125 111 0
-121 -125 0
-122 -125 0
-124 -125 0
-123 -125 0
-121 120 -126 0
-121 -126 111 0
121 -120 -126 -111 0
122 -126 0
-124 -126 0
-123 -126 0
120 -128 -111 0
120 -127 -111 0
-120 -128 111 0
-120 -127 111 0
-121 -128 0
-121 -127 0
-122 -128 0
-122 -127 0
-124 -127 0
-123 -128 0
124 -128 -111 0
123 -127 -111 0
-124 -128 111 0
-123 -127 111 0
125 126 127 128 0
-125 -126 0
-125 -127 0
-125 -128 0
-126 -127 0
-126 -128 0
-127 -128 0
-126 -117 0
-127 -119 0
-128 -118 0
-116 125 0
-127 -118 -109 -100 -91 0
-128 -119 -110 -101 -92 0
129 -134 -120 0
-129 -134 120 0
-130 -134 0
-131 -134 0
-133 -134 0
-132 -134 0
-130 129 -135 0
-130 -135 120 0
130 -129 -135 -120 0
131 -135 0
-133 -135 0
-132 -135 0
129 -137 -120 0
129 -136 -120 0
-129 -137 120 0
-129 -136 120 0
-130 -137 0
-130 -136 0
-131 -137 0
-131 -136 0
-133 -136 0
-132 -137 0
133 -137 -120 0
132 -136 -120 0
-133 -137 120 0
-132 -136 120 0
134 135 136 137 0
-134 -135 0
-134 -136 0
-134 -137 0
-135 -136 0
-135 -137 0
-136 -137 0
-135 -126 0
-136 -128 0
-137 -127 0
-125 134 0
-136 -127 -118 -109 -100 0
-137 -128 -119 -110 -101 0
138 -143 -129 0
-138 -143 129 0
-139 -143 0
-140 -143 0
-142 -143 0
-141 -143 0
-139 138 -144 0
-139 -144 129 0
139 -138 -144 -129 0
140 -144 0
-142 -144 0
-141 -144 0
138 -146 -129 0
138 -145 -129 0
-138 -146 129 0
-138 -145 129 0
-139 -146 0
-139 -145 0
-140 -146 0
-140 -145 0
-142 -145 0
-141 -146 0
142 -146 -129 0
141 -145 -129 0
-142 -146 129 0
-141 -145 129 0
143 144 145 146 0
-143 -144 0
-143 -145 0
-143 -146 0
-144 -145 0
-144 -146 0
-145 -146 0
-144 -135 0
-145 -137 0
-146 -136 0
-134 143 0
-145 -136 -127 -118 -109 0
-146 -137 -128 -119 -110 0
138 -1 0
-138 1 0
